NAME : in_house_7_1
TYPE : TSP
DIMENSION : 7
EDGE_WEIGHT_TYPE : EXPLICIT
EDGE_WEIGHT_FORMAT : UPPER_ROW
COMMENT : INVERSION_SHIFT=7
EDGE_WEIGHT_SECTION
16
22
45
35
30
12
22
13
24
29
31
39
33
27
25
49
4
6
30
20
6
